164
100000
51599
1452
15959
37506
32922
48230
8571
3034
76628
93580
20339
11
45040
34860
11725
98548
24568
2971
33880
22955
15577
22062
84289
11338
15836
79661
27387
20655
23086
61482
84870
27183
6420
79345
9349
11756
47610
7413
67078
44002
1823
18584
46979
36903
84423
42111
18639
27343
27560
15208
12704
3249
2098
15487
48401
35876
6543
10470
674
39610
49659
15789
53856
70288
2612
17372
6252
11475
47774
45875
37701
36274
72892
28851
81667
18061
1553
84153
87453
72603
10869
17956
6547
4823
81794
370
990
12159
78856
72613
1072
37800
22215
10976
26473
53255
50225
14306
85694
26153
17043
81125
49589
66120
4200
63838
18875
42816
53021
22809
10778
30515
1761
19023
4343
28751
52226
80977
594
40141
66451
81361
47033
41581
27108
21144
23369
317
45534
81299
5471
31175
32403
51770
93748
76914
52967
77045
97853
57961
41787
13947
58945
68825
50411
18333
14884
49643
6333
75571
80011
27027
8031
18701
12127
37573
54960
71391
47023
7230
12883
41055
66515
52977
